 200 52 
 32 51 16 57 19 89 86 10 65 80 11 66 
 39 93 71 21 98 27 58 22 18 98 18 97 
 1 63 55 16 47 13 44 94 96 63 31 36 
 45 42 58 61 58 22 40 33 46 75 16 7 
 39 38 80 54 
 37 
 1 3 4 5 6 7 8 9 12 14 15 16 
 17 18 21 22 23 24 26 28 30 31 33 34 
 36 37 38 39 40 42 43 44 45 46 49 51 
 52 
 9 
 7 13 18 28 30 31 38 47 50 
 29 
 2 3 6 7 8 9 10 12 14 16 17 18 
 19 20 21 22 23 24 28 33 35 36 37 38 
 40 41 48 50 52 
 17 
 2 3 7 8 14 17 20 22 24 28 31 32 
 33 37 38 48 49 
 16 
 1 2 4 13 23 28 30 31 36 37 40 42 
 44 45 49 50 
 36 
 1 4 5 6 7 9 10 11 12 14 17 19 
 20 21 22 23 24 25 26 28 29 30 31 32 
 33 34 35 36 37 38 40 41 43 44 49 50 
 48 
 1 2 3 4 5 6 7 8 9 10 11 12 
 16 17 18 19 20 21 22 23 24 25 26 27 
 28 29 30 31 32 33 34 35 36 37 38 39 
 40 41 42 43 44 45 46 47 49 50 51 52 
 26 
 3 4 8 12 13 14 15 18 20 21 22 24 
 26 28 30 31 32 35 36 38 43 45 46 48 
 49 50 
 19 
 3 4 9 20 21 23 28 30 31 32 40 41 
 42 44 45 46 48 49 52 
 4 
 2 9 28 50 
 35 
 2 7 8 9 10 13 14 18 21 22 24 25 
 27 28 29 30 31 32 33 34 35 36 37 38 
 39 40 42 43 44 46 47 48 49 51 52 
 42 
 1 2 3 4 5 7 8 10 11 12 13 14 
 18 19 20 22 23 24 25 26 28 29 30 31 
 32 33 34 35 36 37 40 42 43 44 45 46 
 47 48 49 50 51 52 
 34 
 3 4 6 8 10 11 12 13 14 15 17 19 
 20 22 23 24 25 28 29 30 32 33 34 35 
 37 38 40 41 43 44 45 47 50 51 
 7 
 4 28 32 34 43 46 49 
 19 
 1 3 5 7 12 14 21 24 28 32 33 35 
 37 38 41 42 48 50 51 
 28 
 2 3 4 5 6 9 10 13 14 17 20 21 
 22 23 25 28 33 34 35 37 41 43 44 46 
 47 48 50 51 
 31 
 2 3 6 9 10 11 12 14 17 18 19 20 
 22 23 24 25 26 27 30 36 37 39 41 42 
 43 44 48 49 50 51 52 
 8 
 5 10 15 19 26 31 37 51 
 22 
 3 5 10 12 14 15 16 20 22 23 24 29 
 30 33 39 41 43 46 48 49 51 52 
 52 
 1 2 3 4 5 6 7 8 9 10 11 12 
 13 14 15 16 17 18 19 20 21 22 23 24 
 25 26 27 28 29 30 31 32 33 34 35 36 
 37 38 39 40 41 42 43 44 45 46 47 48 
 49 50 51 52 
 25 
 1 5 8 14 15 16 19 20 21 23 24 25 
 26 28 29 30 32 33 34 36 38 39 46 47 
 50 
 38 
 1 4 5 6 7 8 9 10 11 12 14 15 
 16 18 19 20 22 23 25 26 27 29 31 32 
 34 35 36 37 38 41 44 45 46 47 48 49 
 50 52 
 49 
 1 2 3 4 5 6 7 8 9 10 11 12 
 13 14 15 16 17 18 19 20 21 22 23 24 
 25 26 27 28 29 30 31 32 33 34 35 36 
 37 38 39 40 41 44 45 46 47 49 50 51 
 52 
 27 
 1 4 6 8 10 11 12 13 16 17 19 20 
 22 23 24 28 35 36 37 39 40 41 43 44 
 47 48 51 
 31 
 2 3 5 7 9 13 15 16 19 21 22 24 
 27 28 29 30 33 34 37 39 40 41 42 43 
 44 45 48 49 50 51 52 
 14 
 2 3 6 9 10 16 23 26 28 29 30 32 
 34 42 
 27 
 3 4 5 7 10 14 15 16 19 24 28 29 
 32 33 35 36 38 39 40 41 42 43 44 45 
 46 51 52 
 21 
 2 4 6 7 9 10 13 14 21 23 25 28 
 29 31 32 38 40 41 42 47 50 
 10 
 4 11 13 16 21 24 27 29 41 46 
 34 
 1 4 5 6 8 10 11 12 13 14 16 18 
 20 22 23 24 25 27 29 30 31 33 34 36 
 37 38 41 42 45 46 47 48 49 52 
 48 
 2 3 4 5 6 7 8 9 10 11 12 13 
 14 15 16 17 18 19 21 22 23 24 25 26 
 27 28 30 31 32 33 34 35 37 38 39 40 
 41 42 43 44 45 46 47 48 49 50 51 52 
 46 
 1 2 3 4 5 6 8 10 12 14 15 16 
 17 19 20 21 22 23 24 25 26 27 28 30 
 31 32 33 34 35 36 37 38 39 40 41 42 
 43 44 45 46 47 48 49 50 51 52 
 30 
 1 3 4 5 9 11 12 16 17 20 22 23 
 24 25 28 29 31 32 34 35 36 39 41 42 
 44 45 46 48 50 52 
 34 
 2 3 4 5 6 8 9 12 15 16 18 19 
 20 22 24 27 29 31 32 33 34 35 36 37 
 38 42 43 45 46 47 48 49 50 52 
 14 
 1 3 5 8 11 12 15 17 23 38 41 42 
 43 48 
 48 
 1 2 3 4 5 6 7 8 9 10 11 12 
 14 15 16 18 19 20 22 23 24 25 26 28 
 29 30 31 32 33 34 35 36 37 38 39 40 
 41 42 43 44 45 46 47 48 49 50 51 52 
 24 
 1 3 7 12 14 21 23 25 26 28 29 31 
 32 34 35 36 37 38 40 44 45 50 51 52 
 40 
 2 4 5 6 7 8 9 10 11 12 14 15 
 17 18 21 22 23 24 26 27 28 29 30 31 
 32 33 34 35 36 39 40 42 43 45 47 48 
 49 50 51 52 
 42 
 1 4 5 6 7 8 10 11 12 13 14 15 
 17 19 20 21 22 23 25 26 27 28 29 30 
 32 33 34 35 36 37 38 39 40 41 43 45 
 46 47 48 49 51 52 
 36 
 1 4 6 8 10 11 12 13 15 17 18 20 
 21 22 23 25 26 28 29 30 31 33 34 35 
 36 37 38 40 41 42 43 47 49 50 51 52 
 24 
 2 3 4 8 9 13 14 20 21 22 23 29 
 30 31 35 38 39 41 42 43 45 47 50 52 
 43 
 2 3 4 5 6 7 8 10 11 13 14 15 
 16 17 18 19 20 21 23 25 26 28 29 30 
 31 33 34 36 38 39 40 41 42 43 44 45 
 46 47 48 49 50 51 52 
 46 
 1 2 3 4 5 6 7 9 10 11 12 13 
 14 15 16 17 18 19 20 21 22 23 24 26 
 30 31 33 34 35 36 37 38 39 40 41 42 
 43 44 45 46 47 48 49 50 51 52 
 18 
 1 2 3 8 9 12 15 17 24 29 34 38 
 39 42 49 50 51 52 
 15 
 1 2 3 5 10 15 16 18 27 30 31 34 
 37 46 51 
 9 
 4 5 7 14 16 19 24 28 39 
 13 
 2 3 14 19 21 24 27 37 39 42 47 48 
 49 
 19 
 7 8 12 14 16 17 20 22 27 29 36 37 
 39 40 41 42 44 49 50 
 7 
 10 26 37 43 48 49 51 
 15 
 5 12 13 20 22 23 26 27 29 32 34 37 
 40 42 45 
 11 
 2 3 20 22 25 32 34 37 45 49 50 
 34 
 2 5 6 10 13 14 16 17 18 20 21 22 
 23 24 26 27 28 31 32 34 35 38 39 40 
 41 42 43 45 47 48 49 50 51 52 
 30 
 2 3 5 8 9 10 12 14 15 16 17 20 
 21 23 24 28 29 30 31 32 33 35 36 38 
 40 44 46 47 48 49 
 45 
 1 2 3 4 5 6 7 8 9 10 11 14 
 17 18 19 20 21 22 23 24 25 26 27 28 
 30 31 32 33 34 35 36 37 38 39 40 41 
 42 43 44 46 48 49 50 51 52 
 47 
 1 2 3 4 5 6 7 8 10 11 12 13 
 14 15 17 18 19 20 21 23 24 25 26 27 
 28 29 30 31 32 33 34 35 36 37 38 39 
 40 41 43 44 45 46 47 49 50 51 52 
 13 
 2 4 5 15 17 18 21 22 24 28 39 40 
 46 
 5 
 23 24 34 39 40 
 11 
 2 7 8 10 26 27 29 41 42 43 49 
 27 
 3 4 5 6 7 8 9 12 16 19 20 24 
 25 26 27 28 32 34 35 36 37 42 45 47 
 48 50 51 
 12 
 10 11 16 22 23 28 30 32 33 37 46 48 
 41 
 2 3 4 6 7 8 9 10 11 13 15 16 
 17 18 19 21 23 24 25 26 27 28 29 31 
 33 34 35 36 37 39 40 41 43 44 45 46 
 48 49 50 51 52 
 34 
 2 3 4 5 6 7 9 12 14 16 18 19 
 20 21 22 23 25 27 30 31 32 33 34 35 
 36 38 39 40 41 42 43 45 51 52 
 30 
 1 2 3 5 7 10 11 12 13 14 15 17 
 20 22 26 27 28 29 30 31 32 33 35 37 
 38 39 43 45 50 51 
 26 
 4 5 6 8 9 10 12 13 14 16 17 19 
 20 23 25 27 28 31 32 35 40 43 44 47 
 50 51 
 34 
 1 2 3 5 6 10 11 13 14 15 18 19 
 21 22 23 24 26 27 28 31 32 35 36 38 
 39 40 41 43 44 45 48 49 51 52 
 32 
 3 5 8 9 10 12 13 14 15 16 18 19 
 20 21 22 24 25 26 27 29 30 31 32 33 
 34 36 37 40 42 50 51 52 
 16 
 1 2 3 8 10 19 20 30 31 32 33 34 
 36 38 43 45 
 31 
 1 2 3 7 9 11 12 14 15 17 18 19 
 20 21 22 23 24 28 29 32 34 35 38 40 
 44 45 46 47 48 49 51 
 31 
 1 3 6 10 12 14 15 16 18 21 22 23 
 24 25 26 28 29 30 34 38 39 40 41 42 
 44 45 47 48 49 51 52 
 10 
 1 2 11 13 20 29 36 39 40 45 
 42 
 1 2 3 4 5 7 8 9 11 12 13 14 
 15 18 19 20 23 24 25 26 27 28 30 32 
 33 35 36 37 38 40 41 42 43 44 45 46 
 47 48 49 50 51 52 
 17 
 2 3 4 8 9 14 18 26 31 33 35 43 
 44 45 46 48 49 
 37 
 1 3 4 5 6 7 8 9 10 11 12 14 
 17 19 20 22 23 24 26 30 32 33 34 35 
 36 37 38 40 41 42 43 44 45 46 47 48 
 50 
 11 
 3 5 6 11 19 23 43 44 47 50 52 
 29 
 4 5 9 10 11 12 13 14 15 16 17 19 
 21 23 27 28 30 32 33 34 37 39 40 41 
 44 45 47 48 49 
 27 
 2 10 11 13 15 18 20 22 23 24 25 26 
 28 32 34 36 37 38 39 40 41 44 45 48 
 49 50 52 
 49 
 2 3 5 6 7 8 9 10 11 13 14 15 
 16 17 18 19 20 21 22 23 24 25 26 27 
 28 29 30 31 32 33 34 35 36 37 38 39 
 40 41 42 43 44 45 46 47 48 49 50 51 
 52 
 35 
 3 6 7 8 9 12 13 15 17 18 19 20 
 23 24 25 26 27 28 29 31 32 34 35 36 
 37 38 39 40 41 43 45 46 47 51 52 
 31 
 1 4 6 7 9 10 11 12 18 22 23 24 
 26 28 29 30 31 32 33 34 35 38 40 42 
 43 44 45 46 47 50 52 
 29 
 1 2 6 9 12 13 14 15 16 19 20 22 
 24 27 28 29 30 33 35 36 38 40 42 45 
 46 47 49 50 51 
 17 
 1 2 3 8 9 12 16 20 22 26 33 35 
 38 39 45 47 52 
 26 
 1 2 3 4 5 6 7 8 10 11 12 14 
 16 20 22 25 26 27 31 32 36 37 42 45 
 47 48 
 9 
 6 12 17 24 32 33 40 42 47 
 30 
 1 2 6 8 11 12 14 17 19 20 21 22 
 23 24 25 26 27 28 31 32 33 38 39 40 
 41 43 44 45 46 50 
 26 
 1 2 4 5 7 10 11 14 15 17 18 19 
 23 24 27 30 31 34 36 37 38 40 42 43 
 44 51 
 30 
 4 8 10 11 12 13 14 15 16 19 21 25 
 26 27 28 31 32 33 34 35 36 37 38 39 
 40 44 47 48 51 52 
 42 
 1 3 5 6 7 8 9 11 13 14 15 16 
 17 18 19 20 21 22 23 24 25 26 27 28 
 29 30 31 32 33 34 35 37 38 39 40 43 
 44 46 48 49 51 52 
 51 
 1 2 3 4 5 6 7 8 9 10 11 12 
 13 14 15 16 17 18 19 20 21 22 23 24 
 25 26 27 28 29 30 31 32 33 34 35 36 
 37 38 39 40 41 42 43 44 45 46 47 48 
 49 51 52 
 29 
 1 2 3 4 5 7 11 14 15 16 17 19 
 20 21 22 23 24 26 28 31 32 34 37 44 
 46 47 48 50 52 
 7 
 4 8 11 19 22 31 47 
 31 
 2 3 5 8 9 10 11 13 15 16 17 21 
 25 27 28 29 32 35 36 37 38 40 41 42 
 44 45 46 47 48 51 52 
 4 
 5 28 37 46 
 27 
 2 4 5 8 10 13 14 15 20 22 23 24 
 25 26 27 28 29 30 32 40 42 44 45 46 
 48 49 51 
 24 
 3 4 5 8 9 11 12 14 15 17 18 19 
 20 21 22 25 29 34 36 41 43 45 48 51 
 38 
 2 3 5 6 9 10 11 12 13 14 16 17 
 20 22 23 25 26 27 28 29 30 31 32 33 
 34 35 36 37 38 39 40 41 42 43 46 49 
 50 51 
 48 
 2 3 5 6 7 8 9 10 11 12 13 14 
 15 16 17 18 19 20 22 23 24 25 26 27 
 28 29 30 31 32 33 34 35 36 37 38 39 
 40 41 42 43 44 46 47 48 49 50 51 52 
 39 
 1 2 3 6 7 8 10 12 13 14 16 17 
 18 19 21 22 23 25 26 28 29 30 31 32 
 33 36 38 39 40 41 42 43 45 46 47 48 
 49 50 51 
 12 
 1 7 11 13 21 24 26 36 37 42 44 50 
 18 
 1 2 4 6 8 10 21 24 27 30 36 38 
 42 43 46 49 50 51 
 9 
 6 15 33 40 44 45 46 48 51 
 37 
 1 3 4 5 6 7 8 9 11 13 14 15 
 17 20 21 22 23 25 26 27 28 29 30 32 
 34 36 37 39 41 43 44 45 46 47 48 50 
 51 
 51 
 1 2 4 5 6 7 8 9 10 11 12 13 
 14 15 16 17 18 19 20 21 22 23 24 25 
 26 27 28 29 30 31 32 33 34 35 36 37 
 38 39 40 41 42 43 44 45 46 47 48 49 
 50 51 52 
 7 
 1 2 6 7 25 38 41 
 44 
 2 3 4 5 6 7 8 9 10 13 14 16 
 17 18 20 21 22 23 24 25 26 27 28 29 
 30 32 33 34 36 37 38 39 40 41 42 43 
 44 45 46 48 49 50 51 52 
 7 
 15 28 30 33 36 42 50 
 43 
 1 2 3 4 6 8 9 10 12 13 14 15 
 16 17 18 20 22 23 25 26 27 28 29 30 
 31 32 33 34 36 37 38 39 40 41 42 44 
 45 46 47 48 49 50 51 
 39 
 1 2 3 5 6 7 8 9 13 14 15 17 
 18 19 20 21 22 24 25 27 29 30 31 32 
 35 36 37 38 39 40 43 44 45 46 47 48 
 49 50 51 
 33 
 1 2 3 4 5 6 12 13 15 16 17 18 
 19 20 22 23 24 25 27 28 29 31 32 33 
 35 36 40 41 42 45 46 47 51 
 5 
 1 13 31 33 45 
 40 
 1 2 4 5 7 9 10 13 14 15 16 18 
 19 20 21 22 23 24 25 26 27 28 29 30 
 33 34 37 38 39 40 41 42 45 46 47 48 
 49 50 51 52 
 38 
 1 2 4 5 6 7 8 9 10 11 12 13 
 15 16 18 20 22 24 25 26 27 28 29 30 
 31 33 35 38 40 43 45 46 47 48 49 50 
 51 52 
 50 
 1 2 3 4 5 6 7 8 9 10 11 12 
 13 14 15 16 18 19 20 21 22 23 24 25 
 26 27 28 29 30 32 33 34 35 36 37 38 
 39 40 41 42 43 44 45 46 47 48 49 50 
 51 52 
 36 
 4 5 6 9 10 11 12 13 14 15 16 17 
 18 19 21 25 26 27 30 31 32 33 34 36 
 37 39 40 42 43 44 46 48 49 50 51 52 
 10 
 10 12 22 23 24 33 39 40 43 52 
 35 
 1 4 7 10 13 14 15 17 18 19 20 23 
 24 25 26 27 28 29 30 31 33 36 37 38 
 40 41 42 43 44 45 46 49 50 51 52 
 34 
 2 5 7 8 9 10 11 12 14 15 16 17 
 18 19 20 21 22 23 24 25 26 28 30 32 
 34 37 38 42 43 45 46 48 51 52 
 21 
 1 3 8 10 12 14 19 21 22 24 26 28 
 31 37 39 41 43 44 45 46 52 
 20 
 2 6 7 8 9 12 15 17 18 19 24 25 
 26 30 32 36 37 39 41 46 
 16 
 3 4 6 7 8 13 18 21 22 23 24 28 
 35 37 40 47 
 45 
 1 3 7 8 9 10 11 12 13 14 15 16 
 17 18 20 21 22 23 24 25 26 27 28 29 
 30 31 32 33 34 35 36 37 38 39 40 41 
 42 43 44 46 47 48 49 50 52 
 38 
 1 2 3 6 7 8 10 13 14 15 16 17 
 18 19 20 21 23 24 25 26 27 28 29 30 
 31 32 33 35 36 37 38 39 41 45 46 49 
 50 52 
 4 
 17 18 47 50 
 27 
 1 2 3 6 8 10 11 12 15 21 22 23 
 26 27 28 29 31 32 33 35 37 44 45 46 
 48 49 50 
 35 
 2 4 5 7 9 10 11 12 13 16 17 18 
 19 21 23 24 25 27 28 30 31 32 35 38 
 39 40 41 43 44 45 46 47 49 50 51 
 8 
 7 14 15 21 24 30 37 39 
 44 
 2 3 4 5 6 7 8 9 10 11 12 13 
 14 15 16 19 21 22 24 25 26 27 28 29 
 30 31 32 33 34 35 36 37 38 39 40 41 
 43 44 45 46 48 50 51 52 
 7 
 14 15 21 23 43 45 46 
 13 
 1 3 7 9 10 13 14 35 36 40 41 45 
 49 
 31 
 1 9 10 11 13 14 15 16 17 18 20 22 
 24 25 26 28 29 30 31 33 35 36 37 38 
 40 42 44 45 48 49 51 
 19 
 1 5 6 7 11 16 17 19 20 26 27 30 
 32 37 40 43 44 47 51 
 52 
 1 2 3 4 5 6 7 8 9 10 11 12 
 13 14 15 16 17 18 19 20 21 22 23 24 
 25 26 27 28 29 30 31 32 33 34 35 36 
 37 38 39 40 41 42 43 44 45 46 47 48 
 49 50 51 52 
 21 
 1 3 4 5 10 12 14 18 20 22 23 24 
 25 28 31 35 37 42 43 44 51 
 40 
 2 3 4 5 6 7 9 10 11 12 13 14 
 15 16 20 21 22 23 24 26 27 28 31 32 
 33 34 35 36 38 41 42 43 44 45 46 48 
 49 50 51 52 
 48 
 1 2 3 4 6 7 9 10 12 13 14 15 
 16 17 18 19 20 21 22 23 24 25 26 27 
 28 29 30 31 32 33 34 35 36 37 38 39 
 41 42 43 44 45 46 47 48 49 50 51 52 
 5 
 16 36 39 45 52 
 14 
 1 3 16 17 19 21 23 26 29 30 32 37 
 42 48 
 33 
 1 2 4 5 6 9 10 11 12 13 14 17 
 18 22 23 25 26 28 29 30 31 32 34 36 
 37 38 41 42 44 46 47 50 51 
 46 
 1 2 4 5 6 7 8 9 10 11 12 13 
 14 15 16 17 18 19 20 21 22 23 24 26 
 27 29 30 31 33 34 35 36 38 39 40 41 
 42 43 44 45 46 47 48 50 51 52 
 29 
 1 2 3 4 5 6 7 8 12 14 16 17 
 18 20 21 23 24 26 30 32 33 39 41 42 
 43 44 49 50 51 
 23 
 2 4 5 7 9 13 16 18 24 25 26 27 
 28 31 34 35 37 42 43 49 50 51 52 
 16 
 1 4 9 15 17 19 23 28 29 31 32 34 
 38 44 45 50 
 4 
 18 24 31 41 
 18 
 1 12 16 17 20 22 23 25 32 35 39 41 
 42 44 46 48 49 52 
 23 
 1 2 3 5 6 9 10 12 13 14 22 25 
 27 29 31 32 36 37 38 39 45 46 50 
 46 
 1 2 3 4 5 6 7 8 9 10 11 12 
 13 14 17 18 19 20 21 22 23 24 25 26 
 27 28 29 30 33 34 35 36 37 38 40 42 
 43 44 45 46 47 48 49 50 51 52 
 38 
 1 3 4 5 7 8 10 11 12 13 14 15 
 17 19 21 22 23 25 26 27 29 30 31 32 
 33 34 36 39 41 42 43 45 46 47 48 50 
 51 52 
 37 
 2 3 5 7 8 9 10 13 14 15 16 17 
 19 20 22 23 24 25 26 28 29 30 31 32 
 33 34 35 36 37 38 39 40 42 45 46 48 
 50 
 23 
 2 4 5 7 12 14 15 16 18 27 29 30 
 31 35 40 41 42 43 44 46 50 51 52 
 50 
 1 2 3 4 5 6 8 9 10 11 12 13 
 14 15 16 17 18 19 20 21 22 23 24 25 
 26 27 28 29 30 32 33 34 35 36 37 38 
 39 40 41 42 43 44 45 46 47 48 49 50 
 51 52 
 17 
 1 4 5 7 10 11 19 24 27 32 35 38 
 44 45 48 51 52 
 16 
 2 3 4 6 8 12 20 21 22 23 34 35 
 45 46 51 52 
 29 
 2 3 4 5 7 9 10 12 17 18 19 20 
 21 23 25 28 31 33 34 36 37 38 39 40 
 44 45 47 50 52 
 31 
 1 2 3 4 10 11 14 17 18 19 20 21 
 23 24 25 28 30 31 34 36 37 38 39 40 
 43 44 46 49 50 51 52 
 43 
 2 3 4 5 6 7 10 12 13 14 15 16 
 17 19 20 21 22 23 24 25 27 28 29 30 
 31 32 34 35 36 37 38 39 40 41 42 44 
 45 46 47 48 49 51 52 
 34 
 2 3 7 9 10 12 13 14 15 16 17 18 
 19 20 22 23 24 25 28 29 32 34 35 36 
 37 38 39 40 41 43 44 47 51 52 
 41 
 2 5 6 8 10 11 12 13 14 15 16 17 
 19 20 21 22 23 24 25 26 27 28 29 30 
 31 32 33 35 37 38 40 41 42 43 44 45 
 46 47 48 49 51 
 4 
 10 30 31 49 
 32 
 2 4 6 9 10 12 13 19 20 22 23 24 
 25 26 27 29 30 32 33 35 37 38 39 40 
 41 42 43 44 46 47 50 51 
 34 
 2 7 8 11 12 13 14 16 17 18 19 20 
 21 22 23 24 25 27 28 30 31 32 33 35 
 37 38 39 42 43 47 49 50 51 52 
 12 
 3 10 11 14 15 18 22 33 35 40 47 52 
 21 
 5 6 7 8 11 12 13 14 15 19 22 26 
 30 31 33 34 35 38 41 45 47 
 7 
 3 6 9 15 26 30 48 
 12 
 2 6 7 13 17 20 29 39 41 44 50 51 
 13 
 3 6 14 16 29 32 36 39 41 46 49 51 
 52 
 31 
 1 5 8 10 11 13 14 16 17 20 21 22 
 23 24 26 27 30 31 33 34 35 36 37 38 
 39 44 46 47 48 50 51 
 31 
 1 3 4 6 7 8 9 10 12 13 15 18 
 19 20 23 24 26 30 31 32 34 36 37 40 
 41 42 43 46 47 51 52 
 49 
 1 2 3 4 5 6 7 8 9 10 11 12 
 13 14 15 16 18 19 21 22 23 24 25 26 
 27 28 29 30 31 32 33 34 35 36 37 38 
 39 40 41 42 43 44 46 47 48 49 50 51 
 52 
 51 
 1 2 3 4 5 6 7 8 9 10 11 12 
 13 14 15 16 17 18 19 20 21 22 23 24 
 25 26 28 29 30 31 32 33 34 35 36 37 
 38 39 40 41 42 43 44 45 46 47 48 49 
 50 51 52 
 48 
 1 2 3 4 5 7 8 9 10 11 12 14 
 15 16 17 18 19 20 21 22 23 24 25 27 
 28 29 30 31 32 33 34 35 36 37 38 39 
 40 41 42 44 45 46 47 48 49 50 51 52 
 27 
 3 6 7 9 10 12 13 16 19 20 24 25 
 26 27 28 29 32 33 34 35 37 40 43 46 
 47 49 50 
 9 
 5 10 26 31 36 37 39 47 50 
 13 
 5 9 10 12 13 14 20 25 28 44 46 49 
 52 
 49 
 1 2 3 4 5 6 7 8 9 10 11 12 
 13 14 16 17 18 19 20 21 22 23 25 26 
 28 29 30 31 32 33 34 35 36 37 38 39 
 40 41 42 43 44 45 46 47 48 49 50 51 
 52 
 14 
 1 4 5 7 10 18 19 24 31 39 43 47 
 48 50 
 30 
 4 5 7 8 9 10 14 15 17 18 20 23 
 24 25 26 29 31 32 33 34 35 36 40 41 
 44 47 49 50 51 52 
 15 
 7 14 16 17 19 24 29 30 31 32 38 44 
 46 47 50 
 49 
 1 2 3 4 6 7 8 9 10 11 12 13 
 14 15 16 17 18 19 20 21 22 23 24 25 
 26 27 28 29 30 31 32 33 34 36 37 38 
 39 40 41 42 43 45 46 47 48 49 50 51 
 52 
 26 
 1 5 7 9 11 12 14 15 17 18 19 20 
 21 23 26 29 33 34 36 38 41 42 45 48 
 49 50 
 12 
 1 2 3 12 15 20 23 24 39 41 45 50 
 36 
 3 4 5 6 8 9 10 11 13 15 16 18 
 21 22 23 24 25 26 27 28 30 31 32 33 
 34 35 37 39 40 42 44 45 46 47 48 51 
 42 
 1 2 3 4 5 6 7 10 11 13 14 15 
 16 20 21 23 24 25 26 27 29 30 31 32 
 33 34 35 36 37 38 39 40 41 42 44 46 
 47 48 49 50 51 52 
 45 
 1 2 3 4 5 6 7 8 9 10 11 12 
 13 16 17 18 19 20 21 22 23 24 25 26 
 27 28 29 30 31 32 34 36 38 39 40 41 
 42 43 44 45 46 47 48 49 50 
 37 
 1 2 3 5 8 9 10 11 12 14 17 18 
 21 23 24 25 26 28 29 32 33 34 35 36 
 38 40 41 42 43 44 45 46 47 48 49 50 
 52 
 2 
 22 47 
 27 
 2 4 5 6 8 10 12 13 15 17 19 22 
 23 24 28 30 31 34 37 38 41 42 46 47 
 48 50 51 
 4 
 4 8 31 41 
 50 
 1 2 4 5 6 7 8 9 10 11 12 13 
 14 15 16 17 18 19 20 21 22 23 24 25 
 26 27 28 29 30 31 32 33 35 36 37 38 
 39 40 41 42 43 44 45 46 47 48 49 50 
 51 52 
 20 
 1 2 3 6 12 13 15 18 23 25 27 28 
 29 30 33 41 42 44 47 51 
 43 
 1 2 3 4 5 6 8 9 10 11 12 13 
 14 15 16 17 18 19 21 22 23 24 25 27 
 28 31 33 34 35 36 37 38 39 40 41 42 
 44 46 48 49 50 51 52 
 49 
 1 2 3 4 5 6 7 8 9 10 11 12 
 13 14 16 17 18 19 20 21 22 23 24 25 
 26 27 28 29 30 31 32 33 34 36 37 38 
 39 40 41 42 43 44 46 47 48 49 50 51 
 52 
 7 
 3 5 18 30 31 33 36 
 51 
 1 2 3 4 5 6 7 8 9 10 11 12 
 13 14 15 16 17 18 19 20 21 22 23 24 
 25 26 27 28 30 31 32 33 34 35 36 37 
 38 39 40 41 42 43 44 45 46 47 48 49 
 50 51 52 
 4 
 3 4 13 41 
 37 
 1 2 3 4 7 8 9 10 11 12 13 14 
 16 18 19 21 24 25 26 27 28 29 30 32 
 35 36 37 39 40 41 42 44 46 49 50 51 
 52 
 39 
 1 4 5 7 8 9 10 14 16 17 18 19 
 20 21 22 23 24 25 26 27 29 30 31 32 
 33 34 35 36 37 38 39 40 41 42 44 45 
 46 49 51 
 40 
 1 3 4 5 6 8 9 11 12 13 14 15 
 16 18 19 20 22 23 24 25 26 29 30 31 
 32 33 36 37 40 41 42 43 45 46 47 48 
 49 50 51 52 
 51 
 1 2 3 4 5 6 7 8 9 10 11 12 
 13 14 15 16 17 18 19 20 21 22 23 24 
 25 26 27 28 29 30 31 32 33 34 35 36 
 37 38 39 40 41 42 43 44 45 46 47 48 
 49 50 51 
 31 
 1 2 3 4 5 6 7 8 9 10 11 12 
 13 14 15 16 17 18 19 24 27 28 31 32 
 37 38 42 43 49 50 51 
 6 
 6 8 11 19 20 27 
 40 
 1 2 4 6 8 9 10 11 12 13 14 15 
 16 17 20 23 24 25 26 28 30 31 32 33 
 34 36 37 38 39 40 41 42 43 45 47 48 
 49 50 51 52 
 